c Circuit-CNF generated by TG-PRO v1.0 (c) Huan Chen and Joao Marques-Silva
p cnf 1090 2732
1 2 0
1 3 0
-1 -2 -3 0
4 5 0
4 6 0
-4 -5 -6 0
7 8 0
7 9 0
-7 -8 -9 0
10 11 0
10 12 0
-10 -11 -12 0
13 14 0
13 15 0
-13 -14 -15 0
16 17 0
16 18 0
-16 -17 -18 0
19 20 0
19 21 0
-19 -20 -21 0
22 23 0
22 24 0
-22 -23 -24 0
25 26 0
25 27 0
-25 -26 -27 0
28 29 0
28 30 0
-28 -29 -30 0
31 32 0
31 33 0
-31 -32 -33 0
34 35 0
34 36 0
-34 -35 -36 0
37 38 0
37 39 0
-37 -38 -39 0
40 41 0
40 42 0
-40 -41 -42 0
43 44 0
43 45 0
-43 -44 -45 0
46 47 0
46 48 0
-46 -47 -48 0
-49 -50 0
-49 -51 0
49 50 51 0
-52 53 0
-52 54 0
52 -53 -54 0
-55 56 0
-55 57 0
55 -56 -57 0
-58 59 0
-58 60 0
58 -59 -60 0
-61 62 0
-61 63 0
61 -62 -63 0
-64 65 0
-64 66 0
64 -65 -66 0
67 68 0
67 69 0
-67 -68 -69 0
70 71 0
70 72 0
-70 -71 -72 0
-73 74 0
-73 75 0
73 -74 -75 0
76 77 0
-76 -77 0
78 79 0
-78 -79 0
80 81 0
-80 -81 0
82 83 0
-82 -83 0
84 85 0
-84 -85 0
86 87 0
-86 -87 0
88 89 0
-88 -89 0
90 91 0
-90 -91 0
92 93 0
-92 -93 0
94 95 0
-94 -95 0
96 97 0
-96 -97 0
98 99 0
-98 -99 0
100 101 0
-100 -101 0
102 103 0
-102 -103 0
104 105 0
-104 -105 0
106 107 0
-106 -107 0
108 109 0
108 110 0
-108 -109 -110 0
111 112 0
111 113 0
-111 -112 -113 0
114 115 0
-114 -115 0
116 115 0
-116 -115 0
-117 118 0
117 -118 0
-119 118 0
119 -118 0
120 121 0
-120 -121 0
122 123 0
-122 -123 0
124 125 0
-124 -125 0
126 127 0
-126 -127 0
128 129 0
-128 -129 0
130 129 0
-130 -129 0
131 110 0
-131 -110 0
132 113 0
-132 -113 0
-133 134 0
133 -134 0
135 134 0
-135 -134 0
-136 134 0
136 -134 0
137 134 0
-137 -134 0
-138 139 0
138 -139 0
140 139 0
-140 -139 0
141 139 0
-141 -139 0
-142 129 0
142 -129 0
143 129 0
-143 -129 0
-144 129 0
144 -129 0
-145 129 0
145 -129 0
146 129 0
-146 -129 0
-147 77 0
147 -77 0
-148 79 0
148 -79 0
-149 81 0
149 -81 0
-150 83 0
150 -83 0
-151 85 0
151 -85 0
-152 87 0
152 -87 0
-153 89 0
153 -89 0
-154 91 0
154 -91 0
-155 93 0
155 -93 0
-156 95 0
156 -95 0
-157 97 0
157 -97 0
-158 99 0
158 -99 0
-159 101 0
159 -101 0
-160 103 0
160 -103 0
-161 105 0
161 -105 0
-162 107 0
162 -107 0
163 147 0
-163 -147 0
164 148 0
-164 -148 0
165 149 0
-165 -149 0
166 150 0
-166 -150 0
167 151 0
-167 -151 0
168 152 0
-168 -152 0
169 153 0
-169 -153 0
170 154 0
-170 -154 0
171 155 0
-171 -155 0
172 156 0
-172 -156 0
173 157 0
-173 -157 0
174 158 0
-174 -158 0
175 159 0
-175 -159 0
176 160 0
-176 -160 0
177 161 0
-177 -161 0
178 162 0
-178 -162 0
54 140 0
54 145 0
-54 -140 -145 0
56 140 0
56 145 0
-56 -140 -145 0
75 140 0
75 145 0
-75 -140 -145 0
59 140 0
59 145 0
-59 -140 -145 0
63 140 0
63 145 0
-63 -140 -145 0
65 140 0
65 145 0
-65 -140 -145 0
-179 76 0
179 -76 0
-180 78 0
180 -78 0
-181 84 0
181 -84 0
-182 86 0
182 -86 0
-183 94 0
183 -94 0
-184 104 0
184 -104 0
-185 109 0
-185 143 0
185 -109 -143 0
-186 92 0
186 -92 0
-187 96 0
187 -96 0
-188 98 0
188 -98 0
-189 112 0
-189 143 0
189 -112 -143 0
-190 102 0
190 -102 0
-191 192 0
-191 143 0
191 -192 -143 0
-193 106 0
193 -106 0
-194 102 0
194 -102 0
195 144 0
195 131 0
-195 -144 -131 0
196 144 0
196 132 0
-196 -144 -132 0
197 119 0
197 115 0
-197 -119 -115 0
198 119 0
198 137 0
-198 -119 -137 0
199 116 0
199 137 0
-199 -116 -137 0
-200 82 0
200 -82 0
-201 90 0
201 -90 0
-202 92 0
202 -92 0
-203 102 0
203 -102 0
-204 76 0
204 -76 0
-205 76 0
205 -76 0
-206 78 0
206 -78 0
-207 96 0
207 -96 0
-208 80 0
208 -80 0
-209 210 0
-209 143 0
209 -210 -143 0
-211 98 0
211 -98 0
-212 82 0
212 -82 0
-213 100 0
213 -100 0
-214 215 0
-214 143 0
214 -215 -143 0
-216 120 0
216 -120 0
-217 120 0
217 -120 0
-218 122 0
218 -122 0
-219 122 0
219 -122 0
-220 124 0
220 -124 0
-221 124 0
221 -124 0
-222 126 0
222 -126 0
-223 126 0
223 -126 0
-224 108 0
-224 142 0
224 -108 -142 0
-225 111 0
-225 142 0
225 -111 -142 0
-226 80 0
226 -80 0
-227 80 0
227 -80 0
-228 88 0
228 -88 0
-229 88 0
229 -88 0
-230 106 0
230 -106 0
-231 106 0
231 -106 0
-232 100 0
232 -100 0
-233 100 0
233 -100 0
-234 82 0
234 -82 0
-235 82 0
235 -82 0
-236 84 0
236 -84 0
-237 90 0
237 -90 0
-238 239 0
-238 143 0
238 -239 -143 0
-240 104 0
240 -104 0
-241 92 0
241 -92 0
-242 92 0
242 -92 0
-243 86 0
243 -86 0
-244 90 0
244 -90 0
-245 94 0
245 -94 0
-246 104 0
246 -104 0
-247 88 0
247 -88 0
-248 94 0
248 -94 0
249 224 0
-249 -224 0
250 225 0
-250 -225 0
251 200 0
-251 -200 0
252 201 0
-252 -201 0
253 202 0
-253 -202 0
254 203 0
-254 -203 0
255 205 0
-255 -205 0
256 209 0
-256 -209 0
257 212 0
-257 -212 0
258 213 0
-258 -213 0
259 214 0
-259 -214 0
-260 261 0
-260 199 0
260 -261 -199 0
-262 263 0
-262 198 0
262 -263 -198 0
264 265 0
264 199 0
-264 -265 -199 0
266 267 0
266 198 0
-266 -267 -198 0
268 261 0
268 199 0
-268 -261 -199 0
269 263 0
269 198 0
-269 -263 -198 0
270 217 0
-270 -217 0
271 216 0
-271 -216 0
272 219 0
-272 -219 0
273 218 0
-273 -218 0
274 221 0
-274 -221 0
275 220 0
-275 -220 0
276 223 0
-276 -223 0
277 222 0
-277 -222 0
278 279 0
278 197 0
-278 -279 -197 0
280 281 0
280 197 0
-280 -281 -197 0
282 283 0
282 197 0
-282 -283 -197 0
-284 285 0
-284 197 0
284 -285 -197 0
-286 179 0
286 -179 0
287 226 0
-287 -226 0
-288 179 0
288 -179 0
289 227 0
-289 -227 0
-290 181 0
290 -181 0
291 228 0
-291 -228 0
-292 181 0
292 -181 0
293 229 0
-293 -229 0
-294 183 0
294 -183 0
295 230 0
-295 -230 0
-296 183 0
296 -183 0
297 231 0
-297 -231 0
-298 185 0
298 -185 0
-299 185 0
299 -185 0
-300 187 0
300 -187 0
301 232 0
-301 -232 0
-302 187 0
302 -187 0
303 233 0
-303 -233 0
-304 189 0
304 -189 0
305 234 0
-305 -234 0
-306 189 0
306 -189 0
307 235 0
-307 -235 0
-308 191 0
308 -191 0
309 204 0
-309 -204 0
-310 191 0
310 -191 0
311 236 0
-311 -236 0
312 237 0
-312 -237 0
313 206 0
-313 -206 0
314 238 0
-314 -238 0
315 240 0
-315 -240 0
316 207 0
-316 -207 0
-317 193 0
317 -193 0
318 241 0
-318 -241 0
-319 193 0
319 -193 0
320 242 0
-320 -242 0
321 243 0
-321 -243 0
322 244 0
-322 -244 0
323 208 0
-323 -208 0
324 245 0
-324 -245 0
325 246 0
-325 -246 0
326 211 0
-326 -211 0
327 247 0
-327 -247 0
328 248 0
-328 -248 0
-329 180 0
329 -180 0
-330 180 0
330 -180 0
-331 182 0
331 -182 0
-332 182 0
332 -182 0
-333 184 0
333 -184 0
-334 184 0
334 -184 0
-335 186 0
335 -186 0
-336 186 0
336 -186 0
-337 188 0
337 -188 0
-338 188 0
338 -188 0
-339 190 0
339 -190 0
-340 190 0
340 -190 0
-341 194 0
341 -194 0
-342 194 0
342 -194 0
343 201 0
343 251 0
-343 -201 -251 0
344 200 0
344 252 0
-344 -200 -252 0
345 203 0
345 253 0
-345 -203 -253 0
346 202 0
346 254 0
-346 -202 -254 0
347 214 0
347 258 0
-347 -214 -258 0
348 213 0
348 259 0
-348 -213 -259 0
349 237 0
349 311 0
-349 -237 -311 0
350 236 0
350 312 0
-350 -236 -312 0
351 240 0
351 314 0
-351 -240 -314 0
352 238 0
352 315 0
-352 -238 -315 0
353 244 0
353 321 0
-353 -244 -321 0
354 243 0
354 322 0
-354 -243 -322 0
355 246 0
355 324 0
-355 -246 -324 0
356 245 0
356 325 0
-356 -245 -325 0
357 248 0
357 327 0
-357 -248 -327 0
358 247 0
358 328 0
-358 -247 -328 0
359 288 0
-359 -288 0
360 286 0
-360 -286 0
361 343 0
361 344 0
-361 -343 -344 0
362 290 0
-362 -290 0
363 292 0
-363 -292 0
364 296 0
-364 -296 0
365 294 0
-365 -294 0
366 299 0
-366 -299 0
367 302 0
-367 -302 0
368 306 0
-368 -306 0
369 345 0
369 346 0
-369 -345 -346 0
370 310 0
-370 -310 0
371 310 0
371 255 0
-371 -310 -255 0
372 319 0
-372 -319 0
373 347 0
373 348 0
-373 -347 -348 0
374 264 0
-374 -264 0
-375 264 0
375 -264 0
376 266 0
-376 -266 0
-377 266 0
377 -266 0
378 278 0
378 282 0
-378 -278 -282 0
379 280 0
379 282 0
-379 -280 -282 0
380 329 0
-380 -329 0
381 329 0
381 287 0
-381 -329 -287 0
382 330 0
-382 -330 0
383 330 0
383 289 0
-383 -330 -289 0
384 331 0
-384 -331 0
385 331 0
385 291 0
-385 -331 -291 0
386 332 0
-386 -332 0
387 332 0
387 293 0
-387 -332 -293 0
388 333 0
-388 -333 0
389 333 0
389 295 0
-389 -333 -295 0
390 334 0
-390 -334 0
391 334 0
391 297 0
-391 -334 -297 0
392 335 0
-392 -335 0
393 298 0
-393 -298 0
394 336 0
-394 -336 0
395 337 0
-395 -337 0
396 337 0
396 301 0
-396 -337 -301 0
397 300 0
-397 -300 0
398 338 0
-398 -338 0
399 338 0
399 303 0
-399 -338 -303 0
400 339 0
-400 -339 0
401 339 0
401 305 0
-401 -339 -305 0
402 304 0
-402 -304 0
403 340 0
-403 -340 0
404 340 0
404 307 0
-404 -340 -307 0
405 308 0
-405 -308 0
406 308 0
406 309 0
-406 -308 -309 0
407 349 0
407 350 0
-407 -349 -350 0
408 351 0
408 352 0
-408 -351 -352 0
409 341 0
-409 -341 0
410 341 0
410 318 0
-410 -341 -318 0
411 317 0
-411 -317 0
412 342 0
-412 -342 0
413 342 0
413 320 0
-413 -342 -320 0
414 353 0
414 354 0
-414 -353 -354 0
415 355 0
415 356 0
-415 -355 -356 0
416 357 0
416 358 0
-416 -357 -358 0
-417 268 0
417 -268 0
-418 268 0
418 -268 0
-419 269 0
419 -269 0
-420 269 0
420 -269 0
421 361 0
-421 -361 0
422 205 0
422 370 0
-422 -205 -370 0
423 226 0
423 380 0
-423 -226 -380 0
424 227 0
424 382 0
-424 -227 -382 0
425 228 0
425 384 0
-425 -228 -384 0
426 229 0
426 386 0
-426 -229 -386 0
427 230 0
427 388 0
-427 -230 -388 0
428 231 0
428 390 0
-428 -231 -390 0
429 232 0
429 395 0
-429 -232 -395 0
430 233 0
430 398 0
-430 -233 -398 0
431 234 0
431 400 0
-431 -234 -400 0
432 235 0
432 403 0
-432 -235 -403 0
433 369 0
-433 -369 0
434 204 0
434 405 0
-434 -204 -405 0
435 241 0
435 409 0
-435 -241 -409 0
436 242 0
436 412 0
-436 -242 -412 0
437 373 0
-437 -373 0
438 422 0
438 371 0
-438 -422 -371 0
439 416 0
439 257 0
-439 -416 -257 0
440 416 0
-440 -416 0
441 418 0
-441 -418 0
442 417 0
-442 -417 0
443 420 0
-443 -420 0
444 419 0
-444 -419 0
445 423 0
445 381 0
-445 -423 -381 0
446 424 0
446 383 0
-446 -424 -383 0
447 425 0
447 385 0
-447 -425 -385 0
448 426 0
448 387 0
-448 -426 -387 0
449 427 0
449 389 0
-449 -427 -389 0
450 428 0
450 391 0
-450 -428 -391 0
451 429 0
451 396 0
-451 -429 -396 0
452 430 0
452 399 0
-452 -430 -399 0
453 431 0
453 401 0
-453 -431 -401 0
454 432 0
454 404 0
-454 -432 -404 0
455 434 0
455 406 0
-455 -434 -406 0
456 407 0
-456 -407 0
457 407 0
457 313 0
-457 -407 -313 0
458 408 0
-458 -408 0
459 408 0
459 316 0
-459 -408 -316 0
460 435 0
460 410 0
-460 -435 -410 0
461 436 0
461 413 0
-461 -436 -413 0
462 414 0
-462 -414 0
463 414 0
463 323 0
-463 -414 -323 0
464 415 0
-464 -415 0
465 415 0
465 326 0
-465 -415 -326 0
466 433 0
-466 -433 0
467 212 0
467 440 0
-467 -212 -440 0
468 437 0
-468 -437 0
-469 421 0
469 -421 0
-470 421 0
470 -421 0
471 206 0
471 456 0
-471 -206 -456 0
472 207 0
472 458 0
-472 -207 -458 0
473 208 0
473 462 0
-473 -208 -462 0
474 211 0
474 464 0
-474 -211 -464 0
475 438 0
-475 -438 0
476 446 0
476 359 0
-476 -446 -359 0
477 446 0
-477 -446 0
478 445 0
478 360 0
-478 -445 -360 0
479 445 0
-479 -445 0
480 447 0
480 362 0
-480 -447 -362 0
481 447 0
-481 -447 0
482 448 0
482 363 0
-482 -448 -363 0
483 448 0
-483 -448 0
484 450 0
484 364 0
-484 -450 -364 0
485 450 0
-485 -450 0
486 449 0
486 365 0
-486 -449 -365 0
487 449 0
-487 -449 0
488 452 0
488 367 0
-488 -452 -367 0
489 452 0
-489 -452 0
490 454 0
490 368 0
-490 -454 -368 0
491 454 0
-491 -454 0
492 455 0
-492 -455 0
493 461 0
493 372 0
-493 -461 -372 0
494 461 0
-494 -461 0
495 439 0
495 467 0
-495 -439 -467 0
496 451 0
-496 -451 0
497 451 0
497 397 0
-497 -451 -397 0
498 453 0
-498 -453 0
499 453 0
499 402 0
-499 -453 -402 0
500 457 0
500 471 0
-500 -457 -471 0
501 460 0
-501 -460 0
502 460 0
502 411 0
-502 -460 -411 0
503 459 0
503 472 0
-503 -459 -472 0
504 465 0
504 474 0
-504 -465 -474 0
505 463 0
505 473 0
-505 -463 -473 0
506 288 0
506 477 0
-506 -288 -477 0
507 286 0
507 479 0
-507 -286 -479 0
508 290 0
508 481 0
-508 -290 -481 0
509 470 0
-509 -470 0
510 469 0
-510 -469 0
511 292 0
511 483 0
-511 -292 -483 0
512 296 0
512 485 0
-512 -296 -485 0
513 294 0
513 487 0
-513 -294 -487 0
514 302 0
514 489 0
-514 -302 -489 0
515 306 0
515 491 0
-515 -306 -491 0
516 319 0
516 494 0
-516 -319 -494 0
517 475 0
-517 -475 0
518 300 0
518 496 0
-518 -300 -496 0
519 304 0
519 498 0
-519 -304 -498 0
520 317 0
520 501 0
-520 -317 -501 0
521 495 0
-521 -495 0
522 476 0
522 506 0
-522 -476 -506 0
523 478 0
523 507 0
-523 -478 -507 0
524 480 0
524 508 0
-524 -480 -508 0
525 482 0
525 511 0
-525 -482 -511 0
526 484 0
526 512 0
-526 -484 -512 0
527 486 0
527 513 0
-527 -486 -513 0
528 488 0
528 514 0
-528 -488 -514 0
529 490 0
529 515 0
-529 -490 -515 0
530 500 0
-530 -500 0
531 493 0
531 516 0
-531 -493 -516 0
532 503 0
-532 -503 0
533 504 0
-533 -504 0
534 505 0
-534 -505 0
535 499 0
535 519 0
-535 -499 -519 0
536 497 0
536 518 0
-536 -497 -518 0
537 502 0
537 520 0
-537 -502 -520 0
538 522 0
-538 -522 0
539 526 0
-539 -526 0
540 528 0
-540 -528 0
541 525 0
-541 -525 0
542 505 0
542 533 0
-542 -505 -533 0
543 504 0
543 534 0
-543 -504 -534 0
544 521 0
-544 -521 0
545 529 0
-545 -529 0
546 531 0
-546 -531 0
-547 527 0
547 -527 0
548 535 0
-548 -535 0
549 536 0
-549 -536 0
550 537 0
550 532 0
-550 -537 -532 0
551 537 0
-551 -537 0
552 542 0
552 543 0
-552 -542 -543 0
-553 524 0
553 -524 0
-554 524 0
554 -524 0
-555 527 0
555 -527 0
-556 527 0
556 -527 0
-557 523 0
557 -523 0
-558 523 0
558 -523 0
-559 540 0
559 -540 0
-560 539 0
560 -539 0
561 545 0
-561 -545 0
562 503 0
562 551 0
-562 -503 -551 0
563 546 0
563 544 0
-563 -546 -544 0
564 546 0
-564 -546 0
-565 541 0
565 -541 0
-566 541 0
566 -541 0
-567 538 0
567 -538 0
-568 538 0
568 -538 0
-569 539 0
569 -539 0
-570 540 0
570 -540 0
-571 540 0
571 -540 0
572 552 0
572 256 0
-572 -552 -256 0
573 552 0
-573 -552 0
574 553 0
-574 -553 0
575 554 0
-575 -554 0
576 555 0
576 392 0
-576 -555 -392 0
577 555 0
-577 -555 0
578 556 0
578 394 0
-578 -556 -394 0
579 556 0
-579 -556 0
580 557 0
-580 -557 0
581 558 0
-581 -558 0
582 550 0
582 562 0
-582 -550 -562 0
583 521 0
583 564 0
-583 -521 -564 0
-584 547 0
584 -547 0
-585 547 0
585 -547 0
586 209 0
586 573 0
-586 -209 -573 0
587 566 0
-587 -566 0
588 567 0
588 574 0
-588 -567 -574 0
589 567 0
-589 -567 0
590 568 0
590 575 0
-590 -568 -575 0
591 568 0
-591 -568 0
592 335 0
592 577 0
-592 -335 -577 0
593 336 0
593 579 0
-593 -336 -579 0
-594 559 0
594 -559 0
-595 559 0
595 -559 0
596 569 0
596 549 0
-596 -569 -549 0
597 569 0
-597 -569 0
598 563 0
598 583 0
-598 -563 -583 0
599 570 0
-599 -570 0
600 565 0
-600 -565 0
601 571 0
-601 -571 0
-602 560 0
602 -560 0
-603 560 0
603 -560 0
604 582 0
604 530 0
-604 -582 -530 0
605 582 0
-605 -582 0
606 572 0
606 586 0
-606 -572 -586 0
607 553 0
607 589 0
-607 -553 -589 0
608 554 0
608 591 0
-608 -554 -591 0
609 576 0
609 592 0
-609 -576 -592 0
610 578 0
610 593 0
-610 -578 -593 0
611 536 0
611 597 0
-611 -536 -597 0
612 584 0
-612 -584 0
613 584 0
613 599 0
-613 -584 -599 0
614 585 0
-614 -585 0
615 585 0
615 601 0
-615 -585 -601 0
616 595 0
-616 -595 0
617 500 0
617 605 0
-617 -500 -605 0
618 598 0
618 468 0
-618 -598 -468 0
619 598 0
-619 -598 0
620 588 0
620 607 0
-620 -588 -607 0
621 590 0
621 608 0
-621 -590 -608 0
622 602 0
-622 -602 0
623 602 0
623 580 0
-623 -602 -580 0
624 594 0
-624 -594 0
625 603 0
-625 -603 0
626 603 0
626 581 0
-626 -603 -581 0
627 596 0
627 611 0
-627 -596 -611 0
628 570 0
628 612 0
-628 -570 -612 0
629 571 0
629 614 0
-629 -571 -614 0
630 610 0
630 366 0
-630 -610 -366 0
631 610 0
-631 -610 0
632 604 0
632 617 0
-632 -604 -617 0
633 437 0
633 619 0
-633 -437 -619 0
634 606 0
634 135 0
-634 -606 -135 0
635 609 0
-635 -609 0
636 609 0
636 393 0
-636 -609 -393 0
637 557 0
637 622 0
-637 -557 -622 0
638 558 0
638 625 0
-638 -558 -625 0
639 628 0
639 613 0
-639 -628 -613 0
640 629 0
640 615 0
-640 -629 -615 0
-641 606 0
641 -606 0
642 621 0
642 509 0
-642 -621 -509 0
643 621 0
-643 -621 0
644 620 0
644 510 0
-644 -620 -510 0
645 620 0
-645 -620 0
646 299 0
646 631 0
-646 -299 -631 0
647 627 0
647 466 0
-647 -627 -466 0
648 627 0
-648 -627 0
649 618 0
649 633 0
-649 -618 -633 0
650 298 0
650 635 0
-650 -298 -635 0
651 637 0
651 623 0
-651 -637 -623 0
652 638 0
652 626 0
-652 -638 -626 0
653 470 0
653 643 0
-653 -470 -643 0
654 469 0
654 645 0
-654 -469 -645 0
655 630 0
655 646 0
-655 -630 -646 0
656 433 0
656 648 0
-656 -433 -648 0
657 640 0
657 587 0
-657 -640 -587 0
658 640 0
-658 -640 0
659 641 0
-659 -641 0
660 632 0
660 135 0
-660 -632 -135 0
661 639 0
-661 -639 0
662 639 0
662 600 0
-662 -639 -600 0
-663 632 0
663 -632 0
-664 634 0
664 -634 0
-665 634 0
665 -634 0
666 636 0
666 650 0
-666 -636 -650 0
667 642 0
667 653 0
-667 -642 -653 0
668 644 0
668 654 0
-668 -644 -654 0
669 652 0
669 616 0
-669 -652 -616 0
670 652 0
-670 -652 0
671 647 0
671 656 0
-671 -647 -656 0
672 566 0
672 658 0
-672 -566 -658 0
673 649 0
673 135 0
-673 -649 -135 0
674 651 0
-674 -651 0
675 651 0
675 624 0
-675 -651 -624 0
676 565 0
676 661 0
-676 -565 -661 0
677 655 0
-677 -655 0
-678 649 0
678 -649 0
679 667 0
-679 -667 0
680 595 0
680 670 0
-680 -595 -670 0
681 671 0
-681 -671 0
682 657 0
682 672 0
-682 -657 -672 0
683 663 0
-683 -663 0
684 665 0
684 276 0
-684 -665 -276 0
685 665 0
-685 -665 0
686 664 0
686 277 0
-686 -664 -277 0
687 664 0
-687 -664 0
688 666 0
-688 -666 0
689 594 0
689 674 0
-689 -594 -674 0
-690 660 0
690 -660 0
-691 660 0
691 -660 0
692 662 0
692 676 0
-692 -662 -676 0
693 669 0
693 680 0
-693 -669 -680 0
694 677 0
-694 -677 0
695 678 0
-695 -678 0
696 223 0
696 685 0
-696 -223 -685 0
697 222 0
697 687 0
-697 -222 -687 0
-698 668 0
698 -668 0
699 682 0
-699 -682 0
-700 673 0
700 -673 0
-701 673 0
701 -673 0
-702 668 0
702 -668 0
703 675 0
703 689 0
-703 -675 -689 0
-704 679 0
-704 195 0
704 -679 -195 0
-705 196 0
-705 681 0
705 -196 -681 0
706 691 0
706 274 0
-706 -691 -274 0
707 691 0
-707 -691 0
708 690 0
708 275 0
-708 -690 -275 0
709 690 0
-709 -690 0
710 684 0
710 696 0
-710 -684 -696 0
711 686 0
711 697 0
-711 -686 -697 0
712 692 0
-712 -692 0
713 693 0
-713 -693 0
714 698 0
-714 -698 0
715 698 0
715 694 0
-715 -698 -694 0
716 699 0
-716 -699 0
717 699 0
717 517 0
-717 -699 -517 0
718 701 0
718 443 0
-718 -701 -443 0
719 701 0
-719 -701 0
720 700 0
720 444 0
-720 -700 -444 0
721 700 0
-721 -700 0
722 221 0
722 707 0
-722 -221 -707 0
723 220 0
723 709 0
-723 -220 -709 0
724 710 0
-724 -710 0
725 702 0
-725 -702 0
726 702 0
726 688 0
-726 -702 -688 0
727 703 0
-727 -703 0
728 703 0
728 561 0
-728 -703 -561 0
729 704 0
-729 -704 0
730 705 0
-730 -705 0
731 677 0
731 714 0
-731 -677 -714 0
732 713 0
-732 -713 0
733 713 0
733 548 0
-733 -713 -548 0
734 475 0
734 716 0
-734 -475 -716 0
735 420 0
735 719 0
-735 -420 -719 0
736 419 0
736 721 0
-736 -419 -721 0
737 706 0
737 722 0
-737 -706 -722 0
738 708 0
738 723 0
-738 -708 -723 0
739 711 0
-739 -711 0
-740 711 0
740 -711 0
741 666 0
741 725 0
-741 -666 -725 0
742 545 0
742 727 0
-742 -545 -727 0
743 731 0
743 715 0
-743 -731 -715 0
744 535 0
744 732 0
-744 -535 -732 0
745 734 0
745 717 0
-745 -734 -717 0
746 718 0
746 735 0
-746 -718 -735 0
747 720 0
747 736 0
-747 -720 -736 0
748 737 0
-748 -737 0
749 741 0
749 726 0
-749 -741 -726 0
750 742 0
750 728 0
-750 -742 -728 0
751 743 0
-751 -743 0
752 744 0
752 733 0
-752 -744 -733 0
753 745 0
753 135 0
-753 -745 -135 0
754 746 0
-754 -746 0
755 738 0
-755 -738 0
-756 738 0
756 -738 0
757 749 0
-757 -749 0
758 750 0
-758 -750 0
759 751 0
759 135 0
-759 -751 -135 0
760 752 0
760 135 0
-760 -752 -135 0
761 747 0
-761 -747 0
-762 747 0
762 -747 0
-763 739 0
-763 755 0
763 -739 -755 0
-764 740 0
-764 755 0
764 -740 -755 0
-765 739 0
-765 756 0
765 -739 -756 0
-766 740 0
-766 756 0
766 -740 -756 0
-767 753 0
767 -753 0
-768 753 0
768 -753 0
-769 759 0
769 -759 0
-770 759 0
770 -759 0
-771 760 0
771 -760 0
-772 760 0
772 -760 0
773 768 0
773 272 0
-773 -768 -272 0
774 768 0
-774 -768 0
775 767 0
775 273 0
-775 -767 -273 0
776 767 0
-776 -767 0
777 770 0
777 441 0
-777 -770 -441 0
778 770 0
-778 -770 0
779 769 0
779 442 0
-779 -769 -442 0
780 769 0
-780 -769 0
781 772 0
781 270 0
-781 -772 -270 0
782 772 0
-782 -772 0
783 771 0
783 271 0
-783 -771 -271 0
784 771 0
-784 -771 0
785 219 0
785 774 0
-785 -219 -774 0
786 218 0
786 776 0
-786 -218 -776 0
787 418 0
787 778 0
-787 -418 -778 0
788 417 0
788 780 0
-788 -417 -780 0
789 217 0
789 782 0
-789 -217 -782 0
790 216 0
790 784 0
-790 -216 -784 0
791 773 0
791 785 0
-791 -773 -785 0
792 775 0
792 786 0
-792 -775 -786 0
793 777 0
793 787 0
-793 -777 -787 0
794 779 0
794 788 0
-794 -779 -788 0
795 781 0
795 789 0
-795 -781 -789 0
796 783 0
796 790 0
-796 -783 -790 0
797 791 0
-797 -791 0
798 793 0
-798 -793 0
799 795 0
-799 -795 0
800 792 0
-800 -792 0
-801 792 0
801 -792 0
802 794 0
-802 -794 0
-803 375 0
-803 794 0
803 -375 -794 0
804 796 0
-804 -796 0
-805 377 0
-805 796 0
805 -377 -796 0
806 807 0
806 266 0
-806 -807 -266 0
-808 803 0
808 -803 0
-809 803 0
809 -803 0
-810 805 0
810 -805 0
-811 805 0
811 -805 0
-812 761 0
-812 800 0
812 -761 -800 0
-813 762 0
-813 800 0
813 -762 -800 0
-814 761 0
-814 801 0
814 -761 -801 0
-815 762 0
-815 801 0
815 -762 -801 0
-50 816 0
-50 141 0
50 -816 -141 0
-817 374 0
-817 802 0
817 -374 -802 0
-818 375 0
-818 802 0
818 -375 -802 0
-819 376 0
-819 804 0
819 -376 -804 0
-820 377 0
-820 804 0
820 -377 -804 0
821 822 0
821 378 0
-821 -822 -378 0
823 824 0
823 378 0
-823 -824 -378 0
825 826 0
825 378 0
-825 -826 -378 0
827 828 0
827 378 0
-827 -828 -378 0
829 830 0
829 379 0
-829 -830 -379 0
831 832 0
831 379 0
-831 -832 -379 0
833 834 0
833 379 0
-833 -834 -379 0
-835 836 0
-835 378 0
835 -836 -378 0
-837 838 0
-837 378 0
837 -838 -378 0
-839 840 0
-839 378 0
839 -840 -378 0
-841 842 0
-841 378 0
841 -842 -378 0
-843 844 0
-843 379 0
843 -844 -379 0
-845 846 0
-845 379 0
845 -846 -379 0
-847 848 0
-847 379 0
847 -848 -379 0
849 850 0
849 378 0
-849 -850 -378 0
851 852 0
851 378 0
-851 -852 -378 0
853 854 0
853 378 0
-853 -854 -378 0
855 856 0
855 378 0
-855 -856 -378 0
857 858 0
857 379 0
-857 -858 -379 0
859 860 0
859 379 0
-859 -860 -379 0
861 862 0
861 379 0
-861 -862 -379 0
863 864 0
863 379 0
-863 -864 -379 0
865 866 0
865 379 0
-865 -866 -379 0
867 868 0
867 284 0
-867 -868 -284 0
869 870 0
869 284 0
-869 -870 -284 0
871 872 0
871 284 0
-871 -872 -284 0
873 874 0
873 284 0
-873 -874 -284 0
875 876 0
875 284 0
-875 -876 -284 0
877 878 0
877 284 0
-877 -878 -284 0
879 880 0
879 284 0
-879 -880 -284 0
881 882 0
881 284 0
-881 -882 -284 0
-883 884 0
-883 378 0
883 -884 -378 0
-885 886 0
-885 378 0
885 -886 -378 0
-887 888 0
-887 378 0
887 -888 -378 0
-889 890 0
-889 378 0
889 -890 -378 0
-891 892 0
-891 379 0
891 -892 -379 0
-893 894 0
-893 379 0
893 -894 -379 0
-895 896 0
-895 379 0
895 -896 -379 0
-897 898 0
-897 379 0
897 -898 -379 0
-899 900 0
-899 379 0
899 -900 -379 0
2 835 0
2 163 0
-2 -835 -163 0
901 835 0
-901 -835 0
5 837 0
5 164 0
-5 -837 -164 0
902 837 0
-902 -837 0
8 839 0
8 165 0
-8 -839 -165 0
903 839 0
-903 -839 0
11 841 0
11 166 0
-11 -841 -166 0
904 841 0
-904 -841 0
14 843 0
14 172 0
-14 -843 -172 0
905 843 0
-905 -843 0
17 845 0
17 177 0
-17 -845 -177 0
906 845 0
-906 -845 0
20 847 0
20 178 0
-20 -847 -178 0
907 847 0
-907 -847 0
-908 909 0
-908 881 0
908 -909 -881 0
3 147 0
3 901 0
-3 -147 -901 0
6 148 0
6 902 0
-6 -148 -902 0
9 149 0
9 903 0
-9 -149 -903 0
12 150 0
12 904 0
-12 -150 -904 0
23 883 0
23 167 0
-23 -883 -167 0
910 883 0
-910 -883 0
26 885 0
26 168 0
-26 -885 -168 0
911 885 0
-911 -885 0
29 887 0
29 169 0
-29 -887 -169 0
912 887 0
-912 -887 0
32 889 0
32 170 0
-32 -889 -170 0
913 889 0
-913 -889 0
35 891 0
35 171 0
-35 -891 -171 0
914 891 0
-914 -891 0
15 156 0
15 905 0
-15 -156 -905 0
38 893 0
38 173 0
-38 -893 -173 0
915 893 0
-915 -893 0
41 895 0
41 174 0
-41 -895 -174 0
916 895 0
-916 -895 0
44 897 0
44 175 0
-44 -897 -175 0
917 897 0
-917 -897 0
47 899 0
47 176 0
-47 -899 -176 0
918 899 0
-918 -899 0
18 161 0
18 906 0
-18 -161 -906 0
21 162 0
21 907 0
-21 -162 -907 0
919 920 0
919 855 0
-919 -920 -855 0
921 922 0
921 833 0
-921 -922 -833 0
-923 924 0
-923 855 0
923 -924 -855 0
-925 926 0
-925 833 0
925 -926 -833 0
24 151 0
24 910 0
-24 -151 -910 0
27 152 0
27 911 0
-27 -152 -911 0
30 153 0
30 912 0
-30 -153 -912 0
33 154 0
33 913 0
-33 -154 -913 0
36 155 0
36 914 0
-36 -155 -914 0
39 157 0
39 915 0
-39 -157 -915 0
42 158 0
42 916 0
-42 -158 -916 0
45 159 0
45 917 0
-45 -159 -917 0
48 160 0
48 918 0
-48 -160 -918 0
-927 919 0
-927 128 0
927 -919 -128 0
-928 921 0
-928 130 0
928 -921 -130 0
-929 930 0
-929 908 0
929 -930 -908 0
931 923 0
931 925 0
-931 -923 -925 0
-51 932 0
-51 929 0
51 -932 -929 0
933 927 0
933 729 0
-933 -927 -729 0
934 927 0
-934 -927 0
935 928 0
935 730 0
-935 -928 -730 0
936 928 0
-936 -928 0
-937 938 0
-937 931 0
937 -938 -931 0
-939 940 0
-939 931 0
939 -940 -931 0
-941 942 0
-941 931 0
941 -942 -931 0
-943 944 0
-943 931 0
943 -944 -931 0
-945 946 0
-945 931 0
945 -946 -931 0
947 704 0
947 934 0
-947 -704 -934 0
948 705 0
948 936 0
-948 -705 -936 0
-949 950 0
-949 931 0
949 -950 -931 0
951 933 0
951 947 0
-951 -933 -947 0
952 935 0
952 948 0
-952 -935 -948 0
953 937 0
953 757 0
-953 -937 -757 0
954 939 0
954 758 0
-954 -939 -758 0
955 941 0
955 683 0
-955 -941 -683 0
956 943 0
956 659 0
-956 -943 -659 0
957 945 0
957 695 0
-957 -945 -695 0
958 937 0
-958 -937 0
959 939 0
-959 -939 0
960 941 0
-960 -941 0
961 943 0
-961 -943 0
962 945 0
-962 -945 0
963 949 0
-963 -949 0
964 949 0
964 712 0
-964 -949 -712 0
965 749 0
965 958 0
-965 -749 -958 0
966 750 0
966 959 0
-966 -750 -959 0
967 663 0
967 960 0
-967 -663 -960 0
968 641 0
968 961 0
-968 -641 -961 0
969 678 0
969 962 0
-969 -678 -962 0
68 951 0
68 249 0
-68 -951 -249 0
970 951 0
-970 -951 0
71 952 0
71 250 0
-71 -952 -250 0
971 952 0
-971 -952 0
972 692 0
972 963 0
-972 -692 -963 0
53 965 0
53 953 0
-53 -965 -953 0
57 966 0
57 954 0
-57 -966 -954 0
60 967 0
60 955 0
-60 -967 -955 0
62 968 0
62 956 0
-62 -968 -956 0
66 969 0
66 957 0
-66 -969 -957 0
69 224 0
69 970 0
-69 -224 -970 0
72 225 0
72 971 0
-72 -225 -971 0
973 972 0
973 964 0
-973 -972 -964 0
974 973 0
974 492 0
-974 -973 -492 0
975 973 0
-975 -973 0
976 455 0
976 975 0
-976 -455 -975 0
74 974 0
74 976 0
-74 -974 -976 0
-192 261 0
-192 114 0
192 -261 -114 0
-210 263 0
-210 117 0
210 -263 -117 0
-215 267 0
-215 117 0
215 -267 -117 0
-239 265 0
-239 114 0
239 -265 -114 0
-977 131 0
-977 136 0
977 -131 -136 0
-279 977 0
-279 144 0
279 -977 -144 0
-978 132 0
-978 136 0
978 -132 -136 0
-281 978 0
-281 144 0
281 -978 -144 0
-283 138 0
-283 146 0
283 -138 -146 0
-285 138 0
-285 146 0
285 -138 -146 0
-979 754 0
-979 724 0
979 -754 -724 0
-980 979 0
-980 748 0
980 -979 -748 0
-981 980 0
-981 797 0
981 -980 -797 0
-982 981 0
-982 264 0
982 -981 -264 0
-983 982 0
-983 799 0
983 -982 -799 0
-807 983 0
-807 798 0
807 -983 -798 0
-984 146 0
-984 806 0
984 -146 -806 0
-816 984 0
-816 141 0
816 -984 -141 0
-985 808 0
-985 810 0
985 -808 -810 0
-986 985 0
-986 814 0
986 -985 -814 0
-822 986 0
-822 763 0
822 -986 -763 0
-987 808 0
-987 810 0
987 -808 -810 0
-988 987 0
-988 812 0
988 -987 -812 0
-824 988 0
-824 765 0
824 -988 -765 0
-989 808 0
-989 810 0
989 -808 -810 0
-990 989 0
-990 812 0
990 -989 -812 0
-826 990 0
-826 764 0
826 -990 -764 0
-991 808 0
-991 810 0
991 -808 -810 0
-992 991 0
-992 813 0
992 -991 -813 0
-828 992 0
-828 763 0
828 -992 -763 0
-993 809 0
-993 810 0
993 -809 -810 0
-994 993 0
-994 815 0
994 -993 -815 0
-830 994 0
-830 764 0
830 -994 -764 0
-995 809 0
-995 811 0
995 -809 -811 0
-996 995 0
-996 814 0
996 -995 -814 0
-832 996 0
-832 766 0
832 -996 -766 0
-997 809 0
-997 811 0
997 -809 -811 0
-998 997 0
-998 815 0
998 -997 -815 0
-834 998 0
-834 765 0
834 -998 -765 0
-999 808 0
-999 810 0
999 -808 -810 0
-1000 999 0
-1000 814 0
1000 -999 -814 0
-836 1000 0
-836 763 0
836 -1000 -763 0
-1001 808 0
-1001 810 0
1001 -808 -810 0
-1002 1001 0
-1002 812 0
1002 -1001 -812 0
-838 1002 0
-838 765 0
838 -1002 -765 0
-1003 808 0
-1003 810 0
1003 -808 -810 0
-1004 1003 0
-1004 812 0
1004 -1003 -812 0
-840 1004 0
-840 764 0
840 -1004 -764 0
-1005 808 0
-1005 810 0
1005 -808 -810 0
-1006 1005 0
-1006 813 0
1006 -1005 -813 0
-842 1006 0
-842 763 0
842 -1006 -763 0
-1007 809 0
-1007 810 0
1007 -809 -810 0
-1008 1007 0
-1008 815 0
1008 -1007 -815 0
-844 1008 0
-844 764 0
844 -1008 -764 0
-1009 809 0
-1009 811 0
1009 -809 -811 0
-1010 1009 0
-1010 814 0
1010 -1009 -814 0
-846 1010 0
-846 766 0
846 -1010 -766 0
-1011 809 0
-1011 811 0
1011 -809 -811 0
-1012 1011 0
-1012 815 0
1012 -1011 -815 0
-848 1012 0
-848 765 0
848 -1012 -765 0
-1013 808 0
-1013 820 0
1013 -808 -820 0
-1014 1013 0
-1014 814 0
1014 -1013 -814 0
-850 1014 0
-850 765 0
850 -1014 -765 0
-1015 809 0
-1015 820 0
1015 -809 -820 0
-1016 1015 0
-1016 814 0
1016 -1015 -814 0
-852 1016 0
-852 764 0
852 -1016 -764 0
-1017 809 0
-1017 820 0
1017 -809 -820 0
-1018 1017 0
-1018 815 0
1018 -1017 -815 0
-854 1018 0
-854 763 0
854 -1018 -763 0
-1019 809 0
-1019 820 0
1019 -809 -820 0
-1020 1019 0
-1020 812 0
1020 -1019 -812 0
-856 1020 0
-856 766 0
856 -1020 -766 0
-1021 809 0
-1021 820 0
1021 -809 -820 0
-1022 1021 0
-1022 813 0
1022 -1021 -813 0
-858 1022 0
-858 765 0
858 -1022 -765 0
-1023 818 0
-1023 811 0
1023 -818 -811 0
-1024 1023 0
-1024 814 0
1024 -1023 -814 0
-860 1024 0
-860 765 0
860 -1024 -765 0
-1025 818 0
-1025 811 0
1025 -818 -811 0
-1026 1025 0
-1026 814 0
1026 -1025 -814 0
-862 1026 0
-862 764 0
862 -1026 -764 0
-1027 818 0
-1027 811 0
1027 -818 -811 0
-1028 1027 0
-1028 815 0
1028 -1027 -815 0
-864 1028 0
-864 763 0
864 -1028 -763 0
-1029 818 0
-1029 811 0
1029 -818 -811 0
-1030 1029 0
-1030 813 0
1030 -1029 -813 0
-866 1030 0
-866 765 0
866 -1030 -765 0
-1031 809 0
-1031 820 0
1031 -809 -820 0
-1032 1031 0
-1032 812 0
1032 -1031 -812 0
-868 1032 0
-868 763 0
868 -1032 -763 0
-1033 818 0
-1033 811 0
1033 -818 -811 0
-1034 1033 0
-1034 812 0
1034 -1033 -812 0
-870 1034 0
-870 763 0
870 -1034 -763 0
-1035 818 0
-1035 820 0
1035 -818 -820 0
-1036 1035 0
-1036 814 0
1036 -1035 -814 0
-872 1036 0
-872 763 0
872 -1036 -763 0
-1037 818 0
-1037 820 0
1037 -818 -820 0
-1038 1037 0
-1038 812 0
1038 -1037 -812 0
-874 1038 0
-874 765 0
874 -1038 -765 0
-1039 818 0
-1039 820 0
1039 -818 -820 0
-1040 1039 0
-1040 812 0
1040 -1039 -812 0
-876 1040 0
-876 764 0
876 -1040 -764 0
-1041 818 0
-1041 820 0
1041 -818 -820 0
-1042 1041 0
-1042 813 0
1042 -1041 -813 0
-878 1042 0
-878 763 0
878 -1042 -763 0
-1043 818 0
-1043 819 0
1043 -818 -819 0
-1044 1043 0
-1044 812 0
1044 -1043 -812 0
-880 1044 0
-880 763 0
880 -1044 -763 0
-1045 817 0
-1045 820 0
1045 -817 -820 0
-1046 1045 0
-1046 812 0
1046 -1045 -812 0
-882 1046 0
-882 763 0
882 -1046 -763 0
-1047 808 0
-1047 820 0
1047 -808 -820 0
-1048 1047 0
-1048 814 0
1048 -1047 -814 0
-884 1048 0
-884 765 0
884 -1048 -765 0
-1049 809 0
-1049 820 0
1049 -809 -820 0
-1050 1049 0
-1050 814 0
1050 -1049 -814 0
-886 1050 0
-886 764 0
886 -1050 -764 0
-1051 809 0
-1051 820 0
1051 -809 -820 0
-1052 1051 0
-1052 815 0
1052 -1051 -815 0
-888 1052 0
-888 763 0
888 -1052 -763 0
-1053 809 0
-1053 820 0
1053 -809 -820 0
-1054 1053 0
-1054 812 0
1054 -1053 -812 0
-890 1054 0
-890 766 0
890 -1054 -766 0
-1055 809 0
-1055 820 0
1055 -809 -820 0
-1056 1055 0
-1056 813 0
1056 -1055 -813 0
-892 1056 0
-892 765 0
892 -1056 -765 0
-1057 818 0
-1057 811 0
1057 -818 -811 0
-1058 1057 0
-1058 814 0
1058 -1057 -814 0
-894 1058 0
-894 765 0
894 -1058 -765 0
-1059 818 0
-1059 811 0
1059 -818 -811 0
-1060 1059 0
-1060 814 0
1060 -1059 -814 0
-896 1060 0
-896 764 0
896 -1060 -764 0
-1061 818 0
-1061 811 0
1061 -818 -811 0
-1062 1061 0
-1062 815 0
1062 -1061 -815 0
-898 1062 0
-898 763 0
898 -1062 -763 0
-1063 818 0
-1063 811 0
1063 -818 -811 0
-1064 1063 0
-1064 813 0
1064 -1063 -813 0
-900 1064 0
-900 765 0
900 -1064 -765 0
-1065 867 0
-1065 869 0
1065 -867 -869 0
-1066 1065 0
-1066 871 0
1066 -1065 -871 0
-1067 1066 0
-1067 873 0
1067 -1066 -873 0
-1068 1067 0
-1068 875 0
1068 -1067 -875 0
-1069 1068 0
-1069 877 0
1069 -1068 -877 0
-909 1069 0
-909 879 0
909 -1069 -879 0
-1070 821 0
-1070 823 0
1070 -821 -823 0
-1071 1070 0
-1071 825 0
1071 -1070 -825 0
-1072 1071 0
-1072 827 0
1072 -1071 -827 0
-1073 1072 0
-1073 849 0
1073 -1072 -849 0
-1074 1073 0
-1074 851 0
1074 -1073 -851 0
-920 1074 0
-920 853 0
920 -1074 -853 0
-1075 857 0
-1075 829 0
1075 -857 -829 0
-1076 1075 0
-1076 859 0
1076 -1075 -859 0
-1077 1076 0
-1077 861 0
1077 -1076 -861 0
-1078 1077 0
-1078 863 0
1078 -1077 -863 0
-1079 1078 0
-1079 865 0
1079 -1078 -865 0
-922 1079 0
-922 831 0
922 -1079 -831 0
-1080 821 0
-1080 823 0
1080 -821 -823 0
-1081 1080 0
-1081 825 0
1081 -1080 -825 0
-1082 1081 0
-1082 827 0
1082 -1081 -827 0
-1083 1082 0
-1083 849 0
1083 -1082 -849 0
-1084 1083 0
-1084 851 0
1084 -1083 -851 0
-924 1084 0
-924 853 0
924 -1084 -853 0
-1085 857 0
-1085 829 0
1085 -857 -829 0
-1086 1085 0
-1086 859 0
1086 -1085 -859 0
-1087 1086 0
-1087 861 0
1087 -1086 -861 0
-1088 1087 0
-1088 863 0
1088 -1087 -863 0
-1089 1088 0
-1089 865 0
1089 -1088 -865 0
-926 1089 0
-926 831 0
926 -1089 -831 0
-930 923 0
-930 925 0
930 -923 -925 0
-1090 146 0
-1090 806 0
1090 -146 -806 0
-932 1090 0
-932 139 0
932 -1090 -139 0
-938 260 0
-938 133 0
938 -260 -133 0
-940 121 0
-940 133 0
940 -121 -133 0
-942 125 0
-942 133 0
942 -125 -133 0
-944 127 0
-944 133 0
944 -127 -133 0
-946 262 0
-946 133 0
946 -262 -133 0
-950 123 0
-950 133 0
950 -123 -133 0
